
Gurobi 12.0.2 (win64) logging started Fri Jun  6 10:10:00 2025

Set parameter LogFile to value "C:\Ioana\_uni\honours\slp\algorithm\Main_files\results\others\prox_tubules_new\Task_009_Sample004_irr_gurobi.log"
Gurobi Optimizer version 12.0.2 build v12.0.2rc0 (win64 - Windows 11.0 (26100.2))

CPU model: Intel(R) Core(TM) Ultra 5 125H, instruction set [SSE2|AVX|AVX2]
Thread count: 14 physical cores, 18 logical processors, using up to 18 threads

Non-default parameters:
TimeLimit  2200

Optimize a model with 47658 rows, 34794 columns and 147841 nonzeros
Model fingerprint: 0x000c81ea
Variable types: 17400 continuous, 17394 integer (17394 binary)
Coefficient statistics:
  Matrix range     [1e-04, 8e+04]
  Objective range  [1e-04, 3e+00]
  Bounds range     [1e+00, 1e+03]
  RHS range        [1e+00, 1e+00]
Presolve removed 31198 rows and 21835 columns
Presolve time: 0.31s
Presolved: 16460 rows, 12959 columns, 54695 nonzeros
Variable types: 6412 continuous, 6547 integer (6547 binary)

Root relaxation: objective 8.641501e-05, 2693 iterations, 0.19 seconds (0.34 work units)

    Nodes    |    Current Node    |     Objective Bounds      |     Work
 Expl Unexpl |  Obj  Depth IntInf | Incumbent    BestBd   Gap | It/Node Time

     0     0    0.00009    0    5          -    0.00009      -     -    0s
H    0     0                       0.0432784    0.00009   100%     -    0s
     0     0    0.00380    0   12    0.04328    0.00380  91.2%     -    0s
     0     0    0.02303    0    4    0.04328    0.02303  46.8%     -    0s
H    0     0                       0.0383242    0.02303  39.9%     -    0s
     0     0    0.03180    0    6    0.03832    0.03180  17.0%     -    0s
     0     0 infeasible    0         0.03832    0.03832  0.00%     -    0s

Cutting planes:
  Gomory: 4
  Cover: 2
  Implied bound: 1
  MIR: 4
  Flow cover: 3
  Flow path: 5
  Network: 8
  Relax-and-lift: 1

Explored 1 nodes (2855 simplex iterations) in 0.78 seconds (0.92 work units)
Thread count was 18 (of 18 available processors)

Solution count 2: 0.0383242 0.0432784 

Optimal solution found (tolerance 1.00e-04)
Best objective 3.832417335180e-02, best bound 3.832417335180e-02, gap 0.0000%
